Au(111) slab with a surface vacancy, 35 atoms
   1.00000000000000     
   8.6380164389748693   0.0000000000000000   0.0000000000000000
   4.3190082194874302   7.4807416744598303   0.0000000000000000
   0.0000000000000000   0.0000000000000000  17.0529108884204987
Au
35  
Selective dynamics
Direct
  0.1666666666666643  0.0555555555555571  0.0586410148122596 F F F
  0.5000000000000000  0.0555555555555571  0.0586410148122596 F F F
  0.8333333333333357  0.0555555555555571  0.0586410148122596 F F F
  0.1666666666666643  0.3888888888888857  0.0586410148122596 F F F
  0.5000000000000000  0.3888888888888857  0.0586410148122596 F F F
  0.8333333333333357  0.3888888888888857  0.0586410148122596 F F F
  0.1666666666666643  0.7222222222222214  0.0586410148122596 F F F
  0.5000000000000000  0.7222222222222214  0.0586410148122596 F F F
  0.8333333333333357  0.7222222222222214  0.0586410148122596 F F F
  0.2777777777777784  0.1666666666666643  0.1965042987713943 F F F
  0.6111111111111143  0.1666666666666643  0.1965042987713943 F F F
  0.9444444444444436  0.1666666666666643  0.1965042987713943 F F F
  0.2777777777777786  0.5000000000000000  0.1965042987713943 F F F
  0.6111111111111143  0.5000000000000000  0.1965042987713943 F F F
  0.9444444444444428  0.5000000000000000  0.1965042987713943 F F F
  0.2777777777777786  0.8333333333333356  0.1965042987713943 F F F
  0.6111111111111143  0.8333333333333356  0.1965042987713943 F F F
  0.9444444444444428  0.8333333333333356  0.1965042987713943 F F F
  0.0558983470238536  0.2770921948411739  0.3377314760919475 T T T
  0.3903011573270718  0.2791900462159644  0.3412020766960967 T T T
  0.7193976853458572  0.2791900462159644  0.3412020766960967 T T T
  0.0566006011336491  0.6105885883220009  0.3382382462402719 T T T
  0.3903011573270721  0.6082865742347862  0.3412020766960967 T T T
  0.7216996994331080  0.6105885883220009  0.3382382462402719 T T T
  0.0558983470238538  0.9447872359127381  0.3377314760919475 T T T
  0.3882033059522820  0.9447872359127381  0.3377314760919475 T T T
  0.7216996994331093  0.9454894900225342  0.3382382462402719 T T T
  0.1666666666666643  0.0555555555555571  0.4833217855428139 T T T
  0.5002506407819782  0.0576109816992708  0.4801428994858352 T T T
  0.8310272664076925  0.0576109816992708  0.4801428994858352 T T T
  0.1687220928103550  0.3891395296708628  0.4801428994858352 T T T
  0.8310272664076928  0.3891395296708628  0.4801428994858352 T T T
  0.1687220928103782  0.7199161552965780  0.4801428994858352 T T T
  0.5002506407819780  0.7199161552965780  0.4801428994858352 T T T
  0.8333333333333357  0.7222222222222214  0.4835536378367659 T T T
