C  H 
 1.0000000000000000
    10.0000000000000000    0.0000000000000000    0.0000000000000000
     0.0000000000000000   10.0000000000000000    0.0000000000000000
     0.0000000000000000    0.0000000000000000   10.0000000000000000
 C   H  
   2   6
Direct
  0.5000000128347346  0.4999999722304125  0.5762209000000000
  0.5000000128347346  0.4999999722304125  0.4237791000000000
  0.5882442775711326  0.4490521222304125  0.6157229000000001
  0.4999999871652654  0.6018957277695877  0.6157229000000001
  0.4117556871652654  0.4490521166912373  0.6157229000000001
  0.5000000128347346  0.3981042722304125  0.3842771000000000
  0.4117557128347346  0.5509478722304125  0.3842771000000000
  0.5882443128347347  0.5509478722304125  0.3842771000000000
