C  H 
 1.0000000000000000
    14.2995738983154297    0.0000000000000000    0.0000000000000000
     0.0000000000000000   15.0835138505554198    0.0000000000000000
     0.0000000000000000    0.0000000000000000   10.0761051625013351
 C   H  
   6   6
Selective dynamics
Direct
  0.5178428778080043  0.5964393933462756  0.5037765168819676   F   F   F
  0.5845004214965930  0.5423128851104716  0.4962234831180323   T   T   T
  0.5845004214965930  0.4498113586570258  0.4962234831180323   T   T   T
  0.4999999999999999  0.4035605954303028  0.4962234831180323   T   T   T
  0.4154995785034070  0.4498113586570258  0.4962234831180323   T   T   T
  0.4154995785034070  0.5423128851104716  0.4962234831180323   T   T   T
  0.5178428778080043  0.6685122545357105  0.5037765168819676   T   T   T
  0.6503392313956272  0.5783493100934782  0.4962234831180323   T   T   T
  0.6503392313956272  0.4137749336740191  0.4962234831180323   T   T   T
  0.4999999999999999  0.3314877454642895  0.4962234831180323   T   T   T
  0.3496607686043728  0.4137749336740191  0.4962234831180323   T   T   T
  0.3496607686043728  0.5783493100934782  0.4962234831180323   T   T   T
