C diamond, a = 3.5668 A
   3.566790
  1.000000000000000   0.000000000000000   0.000000000000000
  0.000000000000000   1.000000000000000   0.000000000000000
  0.000000000000000   0.000000000000000   1.000000000000000
   C
   8
Direct
  0.000000000000000   0.000000000000000   0.000000000000000 
  0.000000000000000   0.500000000000000   0.500000000000000 
  0.250000000000000   0.250000000000000   0.250000000000000 
  0.500000000000000   0.000000000000000   0.500000000000000 
  0.250000000000000   0.750000000000000   0.750000000000000 
  0.750000000000000   0.750000000000000   0.250000000000000 
  0.750000000000000   0.250000000000000   0.750000000000000 
  0.500000000000000   0.500000000000000   0.000000000000000 
