Cu
 1.0000000000000000
     7.6579664402503100    0.0000000000000000    0.0000000000000000
     3.8289832201251550    6.6319934785854535    0.0000000000000000
     0.0000000000000000    0.0000000000000000   30.2527034153236478
 Cu 
  36
Direct
  0.0000000000000000  0.0000000000000000  0.3966587658384850
  0.3333333333333333  0.0000000000000000  0.3966587658384850
  0.6666666666666666  0.0000000000000000  0.3966587658384850
  0.0000000000000000  0.3333333333333333  0.3966587658384850
  0.3333333333333334  0.3333333333333333  0.3966587658384850
  0.6666666666666667  0.3333333333333333  0.3966587658384850
  0.0000000000000001  0.6666666666666665  0.3966587658384850
  0.3333333333333334  0.6666666666666665  0.3966587658384850
  0.6666666666666667  0.6666666666666665  0.3966587658384850
  0.1111111111111111  0.1111111111111111  0.4655529219461617
  0.4444444444444444  0.1111111111111111  0.4655529219461617
  0.7777777777777778  0.1111111111111111  0.4655529219461617
  0.1111111111111112  0.4444444444444443  0.4655529219461617
  0.4444444444444445  0.4444444444444443  0.4655529219461617
  0.7777777777777779  0.4444444444444443  0.4655529219461617
  0.1111111111111111  0.7777777777777777  0.4655529219461617
  0.4444444444444445  0.7777777777777777  0.4655529219461617
  0.7777777777777778  0.7777777777777777  0.4655529219461617
 -0.1111111111111111  0.2222222222222222  0.5344470780538383
  0.2222222222222222  0.2222222222222222  0.5344470780538383
  0.5555555555555556  0.2222222222222222  0.5344470780538383
 -0.1111111111111111  0.5555555555555555  0.5344470780538383
  0.2222222222222222  0.5555555555555555  0.5344470780538383
  0.5555555555555556  0.5555555555555555  0.5344470780538383
 -0.1111111111111110  0.8888888888888886  0.5344470780538383
  0.2222222222222223  0.8888888888888886  0.5344470780538383
  0.5555555555555557  0.8888888888888886  0.5344470780538383
  0.0000000000000000  0.0000000000000000  0.6033412341615149
  0.3333333333333333  0.0000000000000000  0.6033412341615149
  0.6666666666666666  0.0000000000000000  0.6033412341615149
  0.0000000000000000  0.3333333333333333  0.6033412341615149
  0.3333333333333334  0.3333333333333333  0.6033412341615149
  0.6666666666666667  0.3333333333333333  0.6033412341615149
  0.0000000000000001  0.6666666666666665  0.6033412341615149
  0.3333333333333334  0.6666666666666665  0.6033412341615149
  0.6666666666666667  0.6666666666666665  0.6033412341615149
