Cu
 1.0000000000000000
     7.6579664402503100   -0.0000000000000000    0.0000000000000005
     3.8289832201251528    6.6319934785854553    0.0000000000000005
     0.0000000000000000    0.0000000000000000   21.2527034153236443
 Cu 
  36
Direct
  0.0000000000000000  0.0000000000000000  0.3528962811663923
  0.1111111111111113  0.1111111111111113  0.4509654270554641
  0.2222222222222220  0.2222222222222220  0.5490345729445359
  0.0000000000000003  0.0000000000000003  0.6471037188336076
  0.0000000000000000  0.3333333333333333  0.3528962811663923
  0.1111111111111113  0.4444444444444446  0.4509654270554641
  0.2222222222222220  0.5555555555555554  0.5490345729445359
  0.0000000000000003  0.3333333333333336  0.6471037188336076
  0.0000000000000000  0.6666666666666666  0.3528962811663923
  0.1111111111111113  0.7777777777777780  0.4509654270554641
  0.2222222222222220  0.8888888888888887  0.5490345729445359
  0.0000000000000003  0.6666666666666670  0.6471037188336076
  0.3333333333333333  0.0000000000000000  0.3528962811663923
  0.4444444444444446  0.1111111111111113  0.4509654270554641
  0.5555555555555552  0.2222222222222220  0.5490345729445359
  0.3333333333333336  0.0000000000000003  0.6471037188336076
  0.3333333333333334  0.3333333333333333  0.3528962811663923
  0.4444444444444447  0.4444444444444446  0.4509654270554641
  0.5555555555555555  0.5555555555555554  0.5490345729445359
  0.3333333333333336  0.3333333333333336  0.6471037188336076
  0.3333333333333333  0.6666666666666666  0.3528962811663923
  0.4444444444444446  0.7777777777777780  0.4509654270554641
  0.5555555555555552  0.8888888888888887  0.5490345729445359
  0.3333333333333336  0.6666666666666670  0.6471037188336076
  0.6666666666666666  0.0000000000000000  0.3528962811663923
  0.7777777777777780  0.1111111111111113  0.4509654270554641
  0.8888888888888887  0.2222222222222220  0.5490345729445359
  0.6666666666666670  0.0000000000000003  0.6471037188336076
  0.6666666666666666  0.3333333333333333  0.3528962811663923
  0.7777777777777779  0.4444444444444446  0.4509654270554641
  0.8888888888888886  0.5555555555555554  0.5490345729445359
  0.6666666666666670  0.3333333333333336  0.6471037188336076
  0.6666666666666667  0.6666666666666666  0.3528962811663923
  0.7777777777777780  0.7777777777777780  0.4509654270554641
  0.8888888888888887  0.8888888888888887  0.5490345729445359
  0.6666666666666670  0.6666666666666670  0.6471037188336076
