Cu
 1.0000000000000000
     7.6579664402503100   -0.0000000000000000    0.0000000000000005
     0.0000000000000013    7.6579664402503100    0.0000000000000011
     0.0000000000000000    0.0000000000000000   27.6349999999999980
 Cu 
  72
Direct
  0.0000000000000003  0.3333333333333332  0.3367106929618238
  0.0000000000000002  0.1666666666666666  0.2713949701465533
  0.0000000000000004  0.3333333333333332  0.4673421385923648
  0.0000000000000003  0.1666666666666666  0.4020264157770944
  0.0000000000000005  0.3333333333333331  0.5979735842229054
  0.0000000000000004  0.1666666666666665  0.5326578614076354
  0.0000000000000006  0.3333333333333331  0.7286050298534469
  0.0000000000000006  0.1666666666666665  0.6632893070381762
  0.0000000000000003  0.6666666666666665  0.3367106929618238
  0.0000000000000002  0.4999999999999999  0.2713949701465533
  0.0000000000000004  0.6666666666666665  0.4673421385923648
  0.0000000000000003  0.4999999999999999  0.4020264157770944
  0.0000000000000005  0.6666666666666664  0.5979735842229054
  0.0000000000000004  0.4999999999999999  0.5326578614076354
  0.0000000000000006  0.6666666666666664  0.7286050298534469
  0.0000000000000006  0.4999999999999998  0.6632893070381762
  0.0000000000000003  0.9999999999999999  0.3367106929618238
  0.0000000000000002  0.8333333333333333  0.2713949701465533
  0.0000000000000004  0.9999999999999999  0.4673421385923648
  0.0000000000000003  0.8333333333333333  0.4020264157770943
  0.0000000000000005  0.9999999999999999  0.5979735842229054
  0.0000000000000004  0.8333333333333331  0.5326578614076353
  0.0000000000000006  0.9999999999999999  0.7286050298534469
  0.0000000000000006  0.8333333333333331  0.6632893070381762
  0.3333333333333336  0.3333333333333332  0.3367106929618238
  0.3333333333333336  0.1666666666666666  0.2713949701465533
  0.3333333333333337  0.3333333333333332  0.4673421385923648
  0.3333333333333336  0.1666666666666666  0.4020264157770944
  0.3333333333333338  0.3333333333333331  0.5979735842229054
  0.3333333333333338  0.1666666666666665  0.5326578614076354
  0.3333333333333340  0.3333333333333331  0.7286050298534469
  0.3333333333333339  0.1666666666666665  0.6632893070381762
  0.3333333333333336  0.6666666666666665  0.3367106929618238
  0.3333333333333336  0.4999999999999999  0.2713949701465533
  0.3333333333333337  0.6666666666666665  0.4673421385923648
  0.3333333333333336  0.4999999999999999  0.4020264157770944
  0.3333333333333338  0.6666666666666664  0.5979735842229054
  0.3333333333333338  0.4999999999999999  0.5326578614076354
  0.3333333333333340  0.6666666666666664  0.7286050298534469
  0.3333333333333339  0.4999999999999998  0.6632893070381762
  0.3333333333333336  0.9999999999999999  0.3367106929618238
  0.3333333333333336  0.8333333333333333  0.2713949701465533
  0.3333333333333337  0.9999999999999999  0.4673421385923648
  0.3333333333333336  0.8333333333333333  0.4020264157770944
  0.3333333333333338  0.9999999999999999  0.5979735842229054
  0.3333333333333338  0.8333333333333331  0.5326578614076354
  0.3333333333333340  0.9999999999999999  0.7286050298534469
  0.3333333333333339  0.8333333333333331  0.6632893070381762
  0.6666666666666670  0.3333333333333332  0.3367106929618238
  0.6666666666666669  0.1666666666666666  0.2713949701465533
  0.6666666666666671  0.3333333333333332  0.4673421385923648
  0.6666666666666670  0.1666666666666666  0.4020264157770944
  0.6666666666666672  0.3333333333333331  0.5979735842229054
  0.6666666666666671  0.1666666666666665  0.5326578614076354
  0.6666666666666673  0.3333333333333331  0.7286050298534469
  0.6666666666666672  0.1666666666666665  0.6632893070381762
  0.6666666666666669  0.6666666666666665  0.3367106929618238
  0.6666666666666667  0.4999999999999999  0.2713949701465533
  0.6666666666666670  0.6666666666666665  0.4673421385923648
  0.6666666666666669  0.4999999999999999  0.4020264157770944
  0.6666666666666671  0.6666666666666664  0.5979735842229054
  0.6666666666666670  0.4999999999999999  0.5326578614076354
  0.6666666666666672  0.6666666666666664  0.7286050298534469
  0.6666666666666671  0.4999999999999998  0.6632893070381762
  0.6666666666666670  0.9999999999999999  0.3367106929618238
  0.6666666666666669  0.8333333333333333  0.2713949701465533
  0.6666666666666671  0.9999999999999999  0.4673421385923648
  0.6666666666666670  0.8333333333333333  0.4020264157770944
  0.6666666666666672  0.9999999999999999  0.5979735842229054
  0.6666666666666671  0.8333333333333331  0.5326578614076354
  0.6666666666666673  0.9999999999999999  0.7286050298534469
  0.6666666666666672  0.8333333333333331  0.6632893070381762
