Fe
 1.0000000000000000
     5.7400000000000002    0.0000000000000000    0.0000000000000000
     0.0000000000000000    5.7400000000000002    0.0000000000000000
     0.0000000000000000    0.0000000000000000    5.7400000000000002
 Fe 
  16
Cartesian
  0.0000000000000000  0.0000000000000000  0.0000000000000000
  1.4350000000000001  1.4350000000000001  1.4350000000000001
  0.0000000000000000  0.0000000000000000  2.8700000000000001
  1.4350000000000001  1.4350000000000001  4.3049999999999997
  0.0000000000000000  2.8700000000000001  0.0000000000000000
  1.4350000000000001  4.3049999999999997  1.4350000000000001
  0.0000000000000000  2.8700000000000001  2.8700000000000001
  1.4350000000000001  4.3049999999999997  4.3049999999999997
  2.8700000000000001  0.0000000000000000  0.0000000000000000
  4.3049999999999997  1.4350000000000001  1.4350000000000001
  2.8700000000000001  0.0000000000000000  2.8700000000000001
  4.3049999999999997  1.4350000000000001  4.3049999999999997
  2.8700000000000001  2.8700000000000001  0.0000000000000000
  4.3049999999999997  4.3049999999999997  1.4350000000000001
  2.8700000000000001  2.8700000000000001  2.8700000000000001
  4.3049999999999997  4.3049999999999997  4.3049999999999997
