Ga As
 1.0000000000000000
     5.6500000000000000    0.0000000000000000    0.0000000000000000
     0.0000000000000000    5.6500000000000000    0.0000000000000000
     0.0000000000000000    0.0000000000000000    5.6500000000000000
 Ga  As
  4   4
Direct
  0.0000000000000000  0.0000000000000000  0.0000000000000000
  0.0000000000000000  0.5000000000000000  0.5000000000000000
  0.5000000000000000  0.0000000000000000  0.5000000000000000
  0.5000000000000000  0.5000000000000000  0.0000000000000000
  0.2500000000000000  0.2500000000000000  0.2500000000000000
  0.2500000000000000  0.7500000000000000  0.7500000000000000
  0.7500000000000000  0.2500000000000000  0.7500000000000000
  0.7500000000000000  0.7500000000000000  0.2500000000000000
