18
Lattice="7.38 0.0 0.0 -3.69 6.391267479929157 0.0 0.0 -0.0 20.0" Properties=species:S:1:pos:R:3 pbc="T T F"
C        0.00000000       0.00000000      10.00000000
C        1.23000000       0.71014083      10.00000000
C       -1.23000000       2.13042249      10.00000000
C        0.00000000       2.84056332      10.00000000
C       -2.46000000       4.26084499      10.00000000
C       -1.23000000       4.97098582      10.00000000
C        2.46000000       0.00000000      10.00000000
C        3.69000000       0.71014083      10.00000000
C        1.23000000       2.13042249      10.00000000
C        2.46000000       2.84056332      10.00000000
C        0.00000000       4.26084499      10.00000000
C        1.23000000       4.97098582      10.00000000
C        4.92000000       0.00000000      10.00000000
C        6.15000000       0.71014083      10.00000000
C        3.69000000       2.13042249      10.00000000
C        4.92000000       2.84056332      10.00000000
C        2.46000000       4.26084499      10.00000000
C        3.69000000       4.97098582      10.00000000
