3
Properties=species:S:1:pos:R:3:initial_charges:R:1:forces:R:3:velocities:R:3 pbc="F F F"
O        0.00000000       0.00000000       0.11926200      -0.80000000       0.01000000      -0.02000000       0.00000000       0.00100000      -0.00100000       0.00000000
H        0.00000000       0.76323900      -0.47704700       0.40000000       0.00000000       0.03000000       0.01000000       0.00000000       0.00200000       0.00100000
H        0.00000000      -0.76323900      -0.47704700       0.40000000      -0.01000000       0.00000000       0.02000000       0.00100000       0.00000000      -0.00100000
