NaCl rocksalt, a = 5.6406 A
   5.640560
  1.000000000000000   0.000000000000000   0.000000000000000
  0.000000000000000   1.000000000000000   0.000000000000000
  0.000000000000000   0.000000000000000   1.000000000000000
  Na  Cl
   4   4
Direct
  0.000000000000000   0.000000000000000   0.000000000000000 
  0.000000000000000   0.500000000000000   0.500000000000000 
  0.500000000000000   0.000000000000000   0.500000000000000 
  0.500000000000000   0.500000000000000   0.000000000000000 
  0.500000000000000   0.500000000000000   0.500000000000000 
  0.500000000000000   0.000000000000000   0.000000000000000 
  0.000000000000000   0.500000000000000   0.000000000000000 
  0.000000000000000   0.000000000000000   0.500000000000000 
