TiO2 rutile, a = 4.5937 A, c = 2.9580 A
   4.593730
  1.000000000000000   0.000000000000000   0.000000000000000
  0.000000000000000   1.000000000000000   0.000000000000000
  0.000000000000000   0.000000000000000   0.643947293375971
   O  Ti
   4   2
Direct
  0.305300000000000   0.305300000000000   0.000000000000000 
  0.694700000000000   0.694700000000000   0.000000000000000 
  0.805300000000000   0.194700000000000   0.500000000000000 
  0.194700000000000   0.805300000000000   0.500000000000000 
  0.000000000000000   0.000000000000000   0.000000000000000 
  0.500000000000000   0.500000000000000   0.500000000000000 
