ZnO wurtzite, a = 3.2495 A, c = 5.2069 A
   3.249500
  0.866025403784439  -0.500000000000000   0.000000000000000
  0.000000000000000   1.000000000000000   0.000000000000000
  0.000000000000000   0.000000000000000   1.602369595322357
  Zn   O
   2   2
Direct
  0.333333333333333   0.666666666666667   0.000000000000000 
  0.666666666666667   0.333333333333333   0.500000000000000 
  0.333333333333333   0.666666666666667   0.345000000000000 
  0.666666666666667   0.333333333333333   0.845000000000000 
