Cu
 1.0000000000000000
     0.0000000000000000    3.6150000000000002    3.6150000000000002
     3.6150000000000002    0.0000000000000000    3.6150000000000002
     3.6150000000000002    3.6150000000000002    0.0000000000000000
 Cu 
   7
Selective dynamics
Direct
  0.0000000000000000  0.0000000000000000 -0.0000000000000000   F   F   F
  0.0000000000000001  0.4999999999999999  0.4999999999999999   T   T   T
  0.0000000000000000  0.5000000000000000 -0.0000000000000000   F   F   F
  0.5000000000000000  0.0000000000000000 -0.0000000000000000   F   F   F
  0.4999999999999999  0.0000000000000001  0.4999999999999999   F   F   F
  0.5000000000000000  0.5000000000000000 -0.0000000000000002   F   F   F
  0.5000000000000000  0.5000000000000000  0.4999999999999998   F   F   F
