Au(111) slab with a surface vacancy, 35 atoms
   1.00000000000000     
   8.6380164389748693   0.0000000000000000   0.0000000000000000
   4.3190082194874302   7.4807416744598303   0.0000000000000000
   0.0000000000000000   0.0000000000000000  17.0529108884204987
Au
35  
Selective dynamics
Direct
  0.1666666666666643  0.0555555555555571  0.0586410148122596 F F F
  0.5000000000000000  0.0555555555555571  0.0586410148122596 F F F
  0.8333333333333357  0.0555555555555571  0.0586410148122596 F F F
  0.1666666666666643  0.3888888888888857  0.0586410148122596 F F F
  0.5000000000000000  0.3888888888888857  0.0586410148122596 F F F
  0.8333333333333357  0.3888888888888857  0.0586410148122596 F F F
  0.1666666666666643  0.7222222222222214  0.0586410148122596 F F F
  0.5000000000000000  0.7222222222222214  0.0586410148122596 F F F
  0.8333333333333357  0.7222222222222214  0.0586410148122596 F F F
  0.2777777777777784  0.1666666666666643  0.1965042987713943 F F F
  0.6111111111111143  0.1666666666666643  0.1965042987713943 F F F
  0.9444444444444436  0.1666666666666643  0.1965042987713943 F F F
  0.2777777777777786  0.5000000000000000  0.1965042987713943 F F F
  0.6111111111111143  0.5000000000000000  0.1965042987713943 F F F
  0.9444444444444428  0.5000000000000000  0.1965042987713943 F F F
  0.2777777777777786  0.8333333333333356  0.1965042987713943 F F F
  0.6111111111111143  0.8333333333333356  0.1965042987713943 F F F
  0.9444444444444428  0.8333333333333356  0.1965042987713943 F F F
  0.0527323643152341  0.2791893733979415  0.3412211109071511 T T T
  0.3892140932236000  0.2771273691083676  0.3377036083690161 T T T
  0.7236338178423849  0.2791893733979415  0.3412211109071511 T T T
  0.0550260284788316  0.6105815840343882  0.3382292958348107 T T T
  0.3899479430423428  0.6105815840343882  0.3382292958348107 T T T
  0.7236338178423851  0.6082879198707908  0.3412211109071511 T T T
  0.0550260284788318  0.9455034985978999  0.3382292958348107 T T T
  0.3892140932236009  0.9447696487791560  0.3377036083690161 T T T
  0.7215718135528113  0.9447696487791560  0.3377036083690161 T T T
  0.1643242945643503  0.0576213115399371  0.4801735886916671 T T T
  0.5000000000000000  0.0555555555555571  0.4830649917026768 T T T
  0.8336099494513103  0.0576213115399371  0.4801735886916671 T T T
  0.1643242945643504  0.3891655050068603  0.4801735886916671 T T T
  0.5020657559843802  0.3891655050068603  0.4801735886916671 T T T
  0.1666666666666643  0.7222222222222214  0.4836393787835000 T T T
  0.5020657559843800  0.7198798501199067  0.4801735886916671 T T T
  0.8336099494513114  0.7198798501199067  0.4801735886916671 T T T
