C  H 
 1.0000000000000000
    10.0000000000000000    0.0000000000000000    0.0000000000000000
     0.0000000000000000   10.0000000000000000    0.0000000000000000
     0.0000000000000000    0.0000000000000000   10.0000000000000000
 C   H  
   2   6
Direct
  0.5000000000000000  0.5000000000000000  0.5762209000000000
  0.5000000000000000  0.5000000000000000  0.4237791000000000
  0.5000000000000000  0.6018957000000000  0.6157229000000001
  0.4117557000000000  0.4490521000000001  0.6157229000000001
  0.5882443000000001  0.4490521000000001  0.6157229000000001
  0.5000000000000000  0.3981043000000000  0.3842771000000000
  0.4117557000000000  0.5509479000000000  0.3842771000000000
  0.5882443000000001  0.5509479000000000  0.3842771000000000
